c   #vars: 118   #clauses: 548   #literals: 1514
c 
p cnf 118 548
-1 -2 0
10 -68 97 98 0
-4 -5 0
109 110 113 114 0
25 26 109 110 0
10 13 14 -68 0
-4 15 16 118 0
-6 -7 0
-8 -9 0
35 -66 87 88 0
97 98 104 105 0
1 2 97 98 0
-11 -12 0
-13 -14 0
-15 -16 0
-17 -18 0
-19 -20 0
-21 -22 0
-23 -24 0
-25 -26 0
43 44 93 94 0
66 67 93 94 0
38 39 109 110 0
-27 -28 0
-29 -30 0
-31 -32 0
-33 -34 0
8 9 40 -103 0
-36 -37 0
-38 -39 0
46 54 55 -79 0
-41 -42 0
-43 -44 0
47 101 102 -114 0
47 79 80 -114 0
-48 -49 0
-50 -51 0
-52 -53 0
-54 -55 0
-56 -57 0
-58 -59 0
15 16 -29 115 0
-60 -61 0
-62 -63 0
-64 -65 0
-66 -67 0
-68 -69 0
3 -6 113 114 0
-71 -72 0
-73 -74 0
-75 -76 0
-77 -78 0
-79 -80 0
-81 -82 0
99 100 104 105 0
64 65 99 100 0
4 5 31 32 0
-83 -84 0
-85 -86 0
-87 -88 0
-89 -90 0
-91 -92 0
-93 -94 0
-95 -96 0
-97 -98 0
-99 -100 0
-101 -102 0
41 42 108 -113 0
-104 -105 0
-106 -107 0
4 5 -15 118 0
1 2 27 28 0
-109 -110 0
-111 -112 0
4 5 73 74 0
-113 -114 0
-116 -117 0
40 -57 -60 103 0
-16 45 116 117 0
52 53 66 67 0
-1 -15 0
-2 -16 0
-1 -25 0
-2 -26 0
29 30 106 107 0
-1 -27 0
-2 -28 0
-1 -47 0
62 63 116 117 0
-1 -56 0
-2 -57 0
109 110 111 112 0
-1 -85 0
-2 -86 0
17 18 52 53 0
-1 -97 0
-2 -98 0
58 59 99 100 0
10 -13 97 98 0
-3 -7 0
38 39 113 114 0
10 68 69 -97 0
-3 -51 0
15 16 87 88 0
10 -13 68 69 0
-3 -114 0
11 12 101 102 0
-4 -31 0
-5 -32 0
-2 47 79 80 0
-4 -48 0
-5 -49 0
-4 -73 0
-5 -74 0
17 18 91 92 0
-4 -75 0
-5 -76 0
13 14 -29 115 0
-4 -111 0
-5 -112 0
46 -54 79 80 0
31 32 45 -117 0
-5 -118 0
50 51 58 59 0
58 59 68 69 0
13 14 81 82 0
13 14 93 94 0
-16 45 56 57 0
-6 -27 0
-7 -28 0
-6 -36 0
-7 -37 0
3 50 51 -113 0
-7 -70 0
-6 -99 0
-7 -100 0
-32 45 56 57 0
-8 -15 0
-9 -16 0
52 53 73 74 0
-8 46 54 55 0
-9 -40 0
-40 83 84 103 0
-2 47 113 114 0
-9 -46 0
1 2 47 -80 0
-8 -91 0
-9 -92 0
75 76 95 96 0
-13 35 87 88 0
-10 -14 0
13 14 35 -87 0
35 66 67 -87 0
-10 -69 0
1 2 15 16 0
-13 35 66 67 0
-10 -98 0
33 34 54 55 0
21 22 23 24 0
-11 -52 0
-12 -53 0
25 26 99 100 0
-11 -99 0
-12 -100 0
29 30 97 98 0
-11 -101 0
-12 -102 0
62 63 93 94 0
-11 -104 0
-12 -105 0
33 34 116 117 0
31 32 45 -57 0
-12 -118 0
17 18 23 24 0
8 9 40 -60 0
-14 -35 0
1 2 47 -114 0
-13 -41 0
-14 -42 0
17 18 77 78 0
-13 -75 0
-14 -76 0
77 78 83 84 0
-13 -81 0
-14 -82 0
66 67 101 102 0
-13 -93 0
-14 -94 0
-13 -106 0
-14 -107 0
-14 -115 0
-15 -45 0
47 -80 101 102 0
15 16 45 -117 0
-15 -62 0
-16 -63 0
68 69 109 110 0
-15 -79 0
-16 -80 0
64 65 95 96 0
-15 -87 0
-16 -88 0
45 56 57 -117 0
-16 -115 0
33 34 64 65 0
-16 31 32 45 0
-16 -118 0
-17 -23 0
-18 -24 0
19 20 50 51 0
-17 -36 0
-18 -37 0
-17 -41 0
-18 -42 0
19 20 54 55 0
-17 -52 0
-18 -53 0
19 20 23 24 0
-17 -77 0
-18 -78 0
91 92 106 107 0
-17 -91 0
-18 -92 0
27 28 95 96 0
-19 -23 0
-20 -24 0
25 26 91 92 0
-19 -27 0
-20 -28 0
1 2 47 -102 0
-19 -50 0
-20 -51 0
70 75 76 -77 0
-19 -54 0
-20 -55 0
-13 15 16 115 0
56 57 -84 103 0
70 -75 77 78 0
-19 -75 0
-20 -76 0
-8 40 60 61 0
-21 -23 0
-22 -24 0
-11 15 16 118 0
-21 -29 0
-22 -30 0
1 2 85 86 0
-21 -83 0
-22 -84 0
62 63 83 84 0
-21 -95 0
-22 -96 0
38 39 48 49 0
-21 -97 0
-22 -98 0
33 34 97 98 0
4 5 -11 118 0
-24 -108 0
19 20 27 28 0
-25 -33 0
-26 -34 0
31 32 87 88 0
3 6 7 -50 0
41 42 106 107 0
-25 -91 0
-26 -92 0
6 7 27 28 0
-25 -99 0
-26 -100 0
21 22 97 98 0
-25 -109 0
-26 -110 0
-32 45 116 117 0
-8 40 -57 103 0
13 14 -15 115 0
-8 40 -84 103 0
38 39 85 86 0
-15 29 30 115 0
21 22 83 84 0
-13 29 30 115 0
29 30 56 57 0
-27 -64 0
-28 -65 0
21 22 29 30 0
-27 -93 0
-28 -94 0
-27 -95 0
-28 -96 0
48 49 101 102 0
-29 -56 0
-30 -57 0
-29 -60 0
-30 -61 0
17 18 36 37 0
-29 -97 0
-30 -98 0
-29 -106 0
-30 -107 0
11 12 52 53 0
-30 -115 0
-31 -45 0
-2 47 101 102 0
68 69 87 88 0
-31 -87 0
-32 -88 0
27 28 64 65 0
-31 -91 0
-32 -92 0
41 42 81 82 0
-33 -54 0
-34 -55 0
-33 -64 0
-34 -65 0
54 55 73 74 0
-33 -71 0
-34 -72 0
66 67 81 82 0
-33 -77 0
-34 -78 0
-33 -97 0
-34 -98 0
11 12 104 105 0
-33 -101 0
-34 -102 0
-33 -116 0
-34 -117 0
58 59 64 65 0
-23 108 113 114 0
-35 -67 0
13 14 41 42 0
-41 108 113 114 0
-35 -88 0
58 59 71 72 0
-36 -83 0
-37 -84 0
13 14 75 76 0
-36 -116 0
-37 -117 0
-6 70 77 78 0
-38 -48 0
-39 -49 0
31 32 91 92 0
-38 -73 0
-39 -74 0
3 -50 113 114 0
27 28 93 94 0
-38 -85 0
-39 -86 0
-38 -95 0
-39 -96 0
1 2 25 26 0
-38 -109 0
-39 -110 0
6 7 36 37 0
-38 -111 0
-39 -112 0
4 5 111 112 0
-38 -113 0
-39 -114 0
60 61 79 80 0
8 9 46 -79 0
-40 -61 0
8 9 46 -54 0
-23 41 42 108 0
-57 83 84 103 0
-41 -81 0
-42 -82 0
33 34 71 72 0
-41 -106 0
-42 -107 0
36 37 116 117 0
11 12 -15 118 0
-42 -108 0
85 86 104 105 0
-43 -60 0
-44 -61 0
13 14 35 -66 0
-43 -64 0
-44 -65 0
-43 -71 0
-44 -72 0
8 9 15 16 0
-43 -93 0
-44 -94 0
-45 -56 0
47 -102 113 114 0
38 39 111 112 0
-45 -116 0
47 -80 113 114 0
52 53 89 90 0
-46 -55 0
-46 -80 0
36 37 83 84 0
-47 -79 0
-47 -101 0
10 13 14 -97 0
-47 -113 0
38 39 95 96 0
-48 -56 0
-49 -57 0
38 39 73 74 0
-48 -101 0
-49 -102 0
48 49 56 57 0
-50 -58 0
-51 -59 0
40 -60 -84 103 0
-40 56 57 103 0
15 16 -32 45 0
-50 -81 0
-51 -82 0
60 61 77 78 0
-52 -64 0
-53 -65 0
58 59 75 76 0
-52 -66 0
-53 -67 0
8 9 91 92 0
-52 -73 0
-53 -74 0
1 2 56 57 0
-52 -89 0
-53 -90 0
29 30 60 61 0
-52 -95 0
-53 -96 0
-54 -73 0
-55 -74 0
45 -57 116 117 0
-56 -103 0
23 24 108 -113 0
66 67 89 90 0
-58 -64 0
-59 -65 0
71 72 111 112 0
-58 -68 0
-59 -69 0
-58 -71 0
-59 -72 0
15 16 45 -57 0
-58 -75 0
-59 -76 0
6 7 99 100 0
-58 -99 0
-59 -100 0
52 53 95 96 0
-60 -62 0
-61 -63 0
68 69 81 82 0
-60 -77 0
-61 -78 0
-60 -79 0
-61 -80 0
52 53 64 65 0
-60 -87 0
-61 -88 0
21 22 95 96 0
-62 -83 0
-63 -84 0
83 84 89 90 0
-62 -93 0
-63 -94 0
11 12 99 100 0
-62 -116 0
-63 -117 0
60 61 87 88 0
-64 -95 0
-65 -96 0
87 88 101 102 0
-64 -99 0
-65 -100 0
19 20 75 76 0
-66 -81 0
-67 -82 0
40 60 61 -103 0
-66 -89 0
-67 -90 0
4 5 75 76 0
-66 -93 0
-67 -94 0
-66 -101 0
-67 -102 0
43 44 71 72 0
-68 -81 0
-69 -82 0
81 82 85 86 0
-68 -87 0
-69 -88 0
-68 -109 0
-69 -110 0
47 79 80 -102 0
3 -6 50 51 0
-70 -76 0
43 44 64 65 0
3 6 7 -113 0
-70 -78 0
33 34 101 102 0
6 7 70 -77 0
43 44 60 61 0
-71 -77 0
-72 -78 0
33 34 77 78 0
-71 -111 0
-72 -112 0
71 72 77 78 0
-75 -95 0
-76 -96 0
50 51 81 82 0
-77 -83 0
-78 -84 0
15 16 79 80 0
-81 -85 0
-82 -86 0
-6 70 75 76 0
13 14 106 107 0
6 7 70 -75 0
-83 -89 0
-84 -90 0
25 26 33 34 0
-83 -103 0
23 24 -41 108 0
60 61 62 63 0
-85 -104 0
-86 -105 0
89 90 104 105 0
-87 -101 0
-88 -102 0
-8 46 79 80 0
-89 -104 0
-90 -105 0
-91 -106 0
-92 -107 0
-93 -109 0
-94 -110 0
-97 -104 0
-98 -105 0
93 94 109 110 0
-99 -104 0
-100 -105 0
17 18 41 42 0
-4 11 12 118 0
-108 -114 0
15 16 62 63 0
-109 -111 0
-110 -112 0
4 5 48 49 0
-109 -113 0
-110 -114 0
